161
1000
690
693
539
278
529
78
60
526
227
453
159
892
628
756
149
524
264
503
474
85
442
84
318
122
504
611
127
793
403
35
457
258
114
342
216
541
6
753
179
965
80
587
688
1
244
392
268
918
262
446
82
918
336
94
5
818
544
552
689
578
349
772
20
135
21
207
45
366
458
454
158
157
82
541
626
461
119
554
254
230
462
318
172
143
857
750
413
310
471
180
312
131
513
496
20
471
53
939
751
70
76
277
372
228
407
61
634
422
65
255
573
529
445
247
374
9
210
480
736
811
12
36
497
652
684
42
427
108
372
576
102
342
191
309
881
277
236
548
487
305
468
278
658
993
235
188
198
220
348
566
7
476
243
331
718
7
459
220
249
663
60
